$ HRM instance with in/out lengths = 20/20, seed = 10
language ESSENCE' 1.0
letting input=[34,21,14,11,7,17,38,9,22,15,4,20,32,9,16,1,7,34,14,39]
letting output=[14,10,36,29,16,30,15,31,29,31,29,23,33,37,38,36,31,31,36,34]
letting MAX_OPS=160
letting num_registers=0
